p edge 393 710
e 1 8 1
e 1 2 1
e 2 9 1
e 3 18 1
e 3 4 1
e 4 19 1
e 4 5 1
e 5 20 1
e 5 6 1
e 6 21 1
e 6 7 1
e 7 22 1
e 7 8 1
e 8 23 1
e 8 9 1
e 9 24 1
e 9 10 1
e 10 25 1
e 10 11 1
e 11 26 1
e 11 12 1
e 12 27 1
e 12 13 1
e 13 28 1
e 13 14 1
e 14 29 1
e 15 30 1
e 15 16 1
e 16 31 1
e 16 17 1
e 17 32 1
e 18 38 1
e 18 19 1
e 19 39 1
e 19 20 1
e 20 40 1
e 20 21 1
e 21 41 1
e 21 22 1
e 22 42 1
e 22 23 1
e 23 43 1
e 23 24 1
e 24 44 1
e 24 25 1
e 25 45 1
e 25 26 1
e 26 46 1
e 26 27 1
e 27 47 1
e 27 28 1
e 28 48 1
e 28 29 1
e 30 49 1
e 30 31 1
e 31 50 1
e 31 32 1
e 32 51 1
e 32 33 1
e 33 52 1
e 33 34 1
e 34 53 1
e 34 35 1
e 35 54 1
e 35 36 1
e 36 55 1
e 36 37 1
e 37 56 1
e 37 38 1
e 38 57 1
e 38 39 1
e 39 58 1
e 39 40 1
e 40 59 1
e 40 41 1
e 41 60 1
e 41 42 1
e 42 61 1
e 42 43 1
e 43 62 1
e 43 44 1
e 44 63 1
e 44 45 1
e 45 64 1
e 45 46 1
e 46 65 1
e 46 47 1
e 47 66 1
e 47 48 1
e 48 67 1
e 49 69 1
e 49 50 1
e 50 70 1
e 50 51 1
e 51 71 1
e 51 52 1
e 52 72 1
e 52 53 1
e 53 73 1
e 53 54 1
e 54 74 1
e 54 55 1
e 55 75 1
e 55 56 1
e 56 76 1
e 56 57 1
e 57 77 1
e 57 58 1
e 58 78 1
e 58 59 1
e 59 79 1
e 59 60 1
e 60 80 1
e 60 61 1
e 61 81 1
e 61 62 1
e 62 82 1
e 62 63 1
e 63 83 1
e 63 64 1
e 64 84 1
e 64 65 1
e 65 85 1
e 65 66 1
e 66 86 1
e 66 67 1
e 67 87 1
e 67 68 1
e 68 88 1
e 69 93 1
e 69 70 1
e 70 94 1
e 70 71 1
e 71 95 1
e 71 72 1
e 72 96 1
e 72 73 1
e 73 97 1
e 73 74 1
e 74 98 1
e 74 75 1
e 75 99 1
e 75 76 1
e 76 100 1
e 76 77 1
e 77 101 1
e 77 78 1
e 78 102 1
e 78 79 1
e 79 103 1
e 79 80 1
e 80 104 1
e 80 81 1
e 81 105 1
e 81 82 1
e 82 106 1
e 82 83 1
e 83 107 1
e 83 84 1
e 84 108 1
e 84 85 1
e 85 109 1
e 85 86 1
e 86 110 1
e 86 87 1
e 87 111 1
e 87 88 1
e 88 112 1
e 88 89 1
e 89 113 1
e 89 90 1
e 90 114 1
e 90 91 1
e 91 115 1
e 91 92 1
e 92 116 1
e 93 122 1
e 93 94 1
e 94 123 1
e 94 95 1
e 95 124 1
e 95 96 1
e 96 125 1
e 96 97 1
e 97 126 1
e 97 98 1
e 98 127 1
e 98 99 1
e 99 128 1
e 99 100 1
e 100 129 1
e 100 101 1
e 101 130 1
e 101 102 1
e 102 131 1
e 102 103 1
e 103 132 1
e 103 104 1
e 104 133 1
e 104 105 1
e 105 134 1
e 105 106 1
e 106 135 1
e 106 107 1
e 107 136 1
e 107 108 1
e 108 137 1
e 108 109 1
e 109 138 1
e 109 110 1
e 110 139 1
e 110 111 1
e 111 140 1
e 111 112 1
e 112 141 1
e 112 113 1
e 113 142 1
e 113 114 1
e 114 143 1
e 114 115 1
e 115 144 1
e 115 116 1
e 116 145 1
e 116 117 1
e 117 146 1
e 118 148 1
e 118 119 1
e 119 149 1
e 119 120 1
e 120 150 1
e 120 121 1
e 121 151 1
e 121 122 1
e 122 152 1
e 122 123 1
e 123 153 1
e 123 124 1
e 124 154 1
e 124 125 1
e 125 155 1
e 125 126 1
e 126 156 1
e 126 127 1
e 127 157 1
e 127 128 1
e 128 158 1
e 128 129 1
e 129 159 1
e 129 130 1
e 130 160 1
e 130 131 1
e 131 161 1
e 131 132 1
e 132 162 1
e 132 133 1
e 133 163 1
e 133 134 1
e 134 164 1
e 134 135 1
e 135 165 1
e 135 136 1
e 136 166 1
e 136 137 1
e 137 167 1
e 137 138 1
e 138 168 1
e 138 139 1
e 139 169 1
e 139 140 1
e 140 170 1
e 140 141 1
e 141 171 1
e 141 142 1
e 142 172 1
e 142 143 1
e 143 173 1
e 143 144 1
e 144 174 1
e 144 145 1
e 145 175 1
e 145 146 1
e 147 176 1
e 147 148 1
e 148 177 1
e 148 149 1
e 149 178 1
e 149 150 1
e 150 179 1
e 150 151 1
e 151 180 1
e 151 152 1
e 152 181 1
e 152 153 1
e 153 182 1
e 153 154 1
e 154 183 1
e 154 155 1
e 155 184 1
e 155 156 1
e 156 185 1
e 156 157 1
e 157 186 1
e 157 158 1
e 158 187 1
e 158 159 1
e 159 188 1
e 159 160 1
e 160 189 1
e 160 161 1
e 161 190 1
e 161 162 1
e 162 191 1
e 162 163 1
e 163 192 1
e 163 164 1
e 164 193 1
e 164 165 1
e 165 194 1
e 165 166 1
e 166 195 1
e 166 167 1
e 167 196 1
e 167 168 1
e 168 197 1
e 168 169 1
e 169 198 1
e 169 170 1
e 170 199 1
e 170 171 1
e 171 200 1
e 171 172 1
e 172 201 1
e 172 173 1
e 173 202 1
e 173 174 1
e 174 203 1
e 174 175 1
e 175 204 1
e 176 205 1
e 176 177 1
e 177 206 1
e 177 178 1
e 178 207 1
e 178 179 1
e 179 208 1
e 179 180 1
e 180 209 1
e 180 181 1
e 181 210 1
e 181 182 1
e 182 211 1
e 182 183 1
e 183 212 1
e 183 184 1
e 184 213 1
e 184 185 1
e 185 214 1
e 185 186 1
e 186 215 1
e 186 187 1
e 187 216 1
e 187 188 1
e 188 217 1
e 188 189 1
e 189 218 1
e 189 190 1
e 190 219 1
e 190 191 1
e 191 220 1
e 191 192 1
e 192 221 1
e 192 193 1
e 193 222 1
e 193 194 1
e 194 223 1
e 194 195 1
e 195 224 1
e 195 196 1
e 196 225 1
e 196 197 1
e 197 226 1
e 197 198 1
e 198 227 1
e 198 199 1
e 199 228 1
e 199 200 1
e 200 229 1
e 200 201 1
e 201 230 1
e 201 202 1
e 202 231 1
e 202 203 1
e 203 232 1
e 203 204 1
e 204 233 1
e 205 234 1
e 205 206 1
e 206 235 1
e 206 207 1
e 207 236 1
e 207 208 1
e 208 237 1
e 208 209 1
e 209 238 1
e 209 210 1
e 210 239 1
e 210 211 1
e 211 240 1
e 211 212 1
e 212 213 1
e 213 214 1
e 214 215 1
e 215 216 1
e 216 217 1
e 217 218 1
e 218 219 1
e 219 220 1
e 220 221 1
e 221 222 1
e 222 223 1
e 223 241 1
e 223 224 1
e 224 242 1
e 224 225 1
e 225 243 1
e 225 226 1
e 226 244 1
e 226 227 1
e 227 245 1
e 227 228 1
e 228 246 1
e 228 229 1
e 229 247 1
e 229 230 1
e 230 248 1
e 230 231 1
e 231 249 1
e 231 232 1
e 232 250 1
e 232 233 1
e 233 251 1
e 234 252 1
e 234 235 1
e 235 253 1
e 235 236 1
e 236 254 1
e 236 237 1
e 237 255 1
e 237 238 1
e 238 256 1
e 238 239 1
e 239 257 1
e 239 240 1
e 240 258 1
e 241 259 1
e 241 242 1
e 242 260 1
e 242 243 1
e 243 261 1
e 243 244 1
e 244 262 1
e 244 245 1
e 245 263 1
e 245 246 1
e 246 264 1
e 246 247 1
e 247 265 1
e 247 248 1
e 248 266 1
e 248 249 1
e 249 267 1
e 249 250 1
e 250 268 1
e 250 251 1
e 251 269 1
e 252 270 1
e 252 253 1
e 253 271 1
e 253 254 1
e 254 272 1
e 254 255 1
e 255 273 1
e 255 256 1
e 256 274 1
e 256 257 1
e 257 275 1
e 257 258 1
e 258 276 1
e 259 260 1
e 260 277 1
e 260 261 1
e 261 278 1
e 261 262 1
e 262 279 1
e 262 263 1
e 263 280 1
e 263 264 1
e 264 281 1
e 264 265 1
e 265 282 1
e 265 266 1
e 266 283 1
e 266 267 1
e 267 284 1
e 267 268 1
e 268 285 1
e 268 269 1
e 269 286 1
e 270 271 1
e 271 272 1
e 272 287 1
e 272 273 1
e 273 288 1
e 273 274 1
e 274 275 1
e 275 276 1
e 277 289 1
e 277 278 1
e 278 290 1
e 278 279 1
e 279 291 1
e 279 280 1
e 280 292 1
e 280 281 1
e 281 293 1
e 281 282 1
e 282 294 1
e 282 283 1
e 283 295 1
e 283 284 1
e 284 296 1
e 284 285 1
e 285 297 1
e 285 286 1
e 287 298 1
e 287 288 1
e 288 299 1
e 289 300 1
e 289 290 1
e 290 301 1
e 290 291 1
e 291 302 1
e 291 292 1
e 292 303 1
e 292 293 1
e 293 304 1
e 293 294 1
e 294 305 1
e 294 295 1
e 295 306 1
e 295 296 1
e 296 307 1
e 296 297 1
e 297 308 1
e 298 309 1
e 298 299 1
e 299 310 1
e 300 311 1
e 300 301 1
e 301 312 1
e 301 302 1
e 302 313 1
e 302 303 1
e 303 314 1
e 303 304 1
e 304 315 1
e 304 305 1
e 305 316 1
e 305 306 1
e 306 317 1
e 306 307 1
e 307 318 1
e 307 308 1
e 308 319 1
e 309 322 1
e 309 310 1
e 310 323 1
e 311 330 1
e 311 312 1
e 312 331 1
e 312 313 1
e 313 332 1
e 313 314 1
e 314 333 1
e 314 315 1
e 315 334 1
e 315 316 1
e 316 335 1
e 316 317 1
e 317 336 1
e 317 318 1
e 318 337 1
e 318 319 1
e 319 338 1
e 320 339 1
e 320 321 1
e 321 340 1
e 321 322 1
e 322 341 1
e 322 323 1
e 323 342 1
e 323 324 1
e 324 343 1
e 324 325 1
e 325 344 1
e 325 326 1
e 326 345 1
e 326 327 1
e 327 346 1
e 327 328 1
e 328 347 1
e 328 329 1
e 329 348 1
e 330 351 1
e 330 331 1
e 331 352 1
e 331 332 1
e 332 353 1
e 332 333 1
e 333 354 1
e 333 334 1
e 334 355 1
e 334 335 1
e 335 356 1
e 335 336 1
e 336 357 1
e 336 337 1
e 337 358 1
e 337 338 1
e 338 359 1
e 339 360 1
e 339 340 1
e 340 361 1
e 340 341 1
e 341 362 1
e 341 342 1
e 342 363 1
e 342 343 1
e 343 364 1
e 343 344 1
e 344 365 1
e 344 345 1
e 345 366 1
e 345 346 1
e 346 367 1
e 346 347 1
e 347 368 1
e 347 348 1
e 348 369 1
e 348 349 1
e 349 370 1
e 349 350 1
e 350 371 1
e 351 352 1
e 352 372 1
e 352 353 1
e 353 373 1
e 353 354 1
e 354 374 1
e 354 355 1
e 355 375 1
e 355 356 1
e 356 376 1
e 356 357 1
e 357 377 1
e 357 358 1
e 358 378 1
e 358 359 1
e 359 379 1
e 360 361 1
e 361 362 1
e 362 363 1
e 363 364 1
e 364 365 1
e 365 366 1
e 366 367 1
e 367 380 1
e 367 368 1
e 368 381 1
e 368 369 1
e 369 382 1
e 369 370 1
e 370 383 1
e 370 371 1
e 371 384 1
e 372 385 1
e 372 373 1
e 373 374 1
e 374 375 1
e 375 386 1
e 375 376 1
e 376 387 1
e 376 377 1
e 377 388 1
e 377 378 1
e 378 389 1
e 378 379 1
e 379 390 1
e 380 381 1
e 381 382 1
e 382 383 1
e 383 384 1
e 386 391 1
e 386 387 1
e 387 392 1
e 387 388 1
e 388 389 1
e 389 390 1
e 391 392 1
e 392 393 1